\ File written by HiGHS .lp file handler
min
 obj: +1 c_0 +2 c_1 +3 c_2 +4 c_3 +5 c_4 +6 c_5 +7 c_6 +8 c_7 +9 c_8 +10 c_9 +11 c_10 +12 c_11 +13 c_12 +14 c_13 +15 c_14 +16 c_15 +17 c_16 +18 c_17 +19 c_18 +20 c_19 +21 c_20 +22 c_21 +23 c_22 +24 c_23 +25 c_24 +26 c_25 +27 c_26 +28 c_27 +29 c_28 +30 c_29 +31 c_30 +32 c_31 +33 c_32 +34 c_33 +35 c_34 +36 c_35 +37 c_36 +38 c_37 +39 c_38 +40 c_39 +41 c_40 +42 c_41 +43 c_42 +44 c_43 +45 c_44 +46 c_45 +47 c_46 +48 c_47 +49 c_48 +50 c_49 +51 c_50 +52 c_51 +53 c_52 +54 c_53 +55 c_54 +56 c_55 +57 c_56 +58 c_57 +59 c_58 +60 c_59 +61 c_60 +62 c_61 +63 c_62 +64
 c_63 +65 c_64 +66 c_65 +67 c_66 +68 c_67 +69 c_68 +70 c_69 +71 c_70 +72 c_71 +73 c_72 +74 c_73 +75 c_74 +76 c_75 +77 c_76 +78 c_77 +79 c_78 +80 c_79 +81 c_80 +82 c_81 +83 c_82 +84 c_83 +85 c_84 +86 c_85 +87 c_86 +88 c_87 +89 c_88 +90 c_89 +91 c_90 +92 c_91 +93 c_92 +94 c_93 +95 c_94 +96 c_95 +97 c_96 +98 c_97 +99 c_98 +100 c_99 +101 c_100 +102 c_101 +103 c_102 +104 c_103 +105 c_104 +106 c_105 +107 c_106 +108 c_107 +109 c_108 +110 c_109 +111 c_110 +112 c_111 +113 c_112 +114 c_113 +115 c_114 +116 c_115 +117 c_116 +118 c_117 +119 c_118 +120 c_119 +121
 c_120 +122 c_121 +123 c_122 +124 c_123 +125 c_124 +126 c_125 +127 c_126 +128 c_127 +129 c_128 +130 c_129 +131 c_130 +132 c_131 +133 c_132 +134 c_133 +135 c_134 +136 c_135 +137 c_136 +138 c_137 +139 c_138 +140 c_139 +141 c_140 +142 c_141 +143 c_142 +144 c_143 
st
 initial: +1 E_0 = +6000
 terminal: +1 E_144 = +6000
 balance_0: +1 g_0 -1 c_0 +1 d_0 -1 w_0 = +573.307766666667
 state_0: -0.9 c_0 +1.11111111111111 d_0 -1 E_0 +1 E_1 = +0
 charge_mode_0: +1 c_0 -833.333333333333 z_0 <= +0
 discharge_mode_0: +1 d_0 +833.333333333333 z_0 <= +833.333333333333
 balance_1: +1 g_1 -1 c_1 +1 d_1 -1 w_1 = +572.996533333333
 state_1: -0.9 c_1 +1.11111111111111 d_1 -1 E_1 +1 E_2 = +0
 charge_mode_1: +1 c_1 -833.333333333333 z_1 <= +0
 discharge_mode_1: +1 d_1 +833.333333333333 z_1 <= +833.333333333333
 balance_2: +1 g_2 -1 c_2 +1 d_2 -1 w_2 = +574.050516666667
 state_2: -0.9 c_2 +1.11111111111111 d_2 -1 E_2 +1 E_3 = +0
 charge_mode_2: +1 c_2 -833.333333333333 z_2 <= +0
 discharge_mode_2: +1 d_2 +833.333333333333 z_2 <= +833.333333333333
 balance_3: +1 g_3 -1 c_3 +1 d_3 -1 w_3 = +575.740616666667
 state_3: -0.9 c_3 +1.11111111111111 d_3 -1 E_3 +1 E_4 = +0
 charge_mode_3: +1 c_3 -833.333333333333 z_3 <= +0
 discharge_mode_3: +1 d_3 +833.333333333333 z_3 <= +833.333333333333
 balance_4: +1 g_4 -1 c_4 +1 d_4 -1 w_4 = +576.471216666667
 state_4: -0.9 c_4 +1.11111111111111 d_4 -1 E_4 +1 E_5 = +0
 charge_mode_4: +1 c_4 -833.333333333333 z_4 <= +0
 discharge_mode_4: +1 d_4 +833.333333333333 z_4 <= +833.333333333333
 balance_5: +1 g_5 -1 c_5 +1 d_5 -1 w_5 = +576.640016666667
 state_5: -0.9 c_5 +1.11111111111111 d_5 -1 E_5 +1 E_6 = +0
 charge_mode_5: +1 c_5 -833.333333333333 z_5 <= +0
 discharge_mode_5: +1 d_5 +833.333333333333 z_5 <= +833.333333333333
 balance_6: +1 g_6 -1 c_6 +1 d_6 -1 w_6 = +577.8597
 state_6: -0.9 c_6 +1.11111111111111 d_6 -1 E_6 +1 E_7 = +0
 charge_mode_6: +1 c_6 -833.333333333333 z_6 <= +0
 discharge_mode_6: +1 d_6 +833.333333333333 z_6 <= +833.333333333333
 balance_7: +1 g_7 -1 c_7 +1 d_7 -1 w_7 = +577.993866666667
 state_7: -0.9 c_7 +1.11111111111111 d_7 -1 E_7 +1 E_8 = +0
 charge_mode_7: +1 c_7 -833.333333333333 z_7 <= +0
 discharge_mode_7: +1 d_7 +833.333333333333 z_7 <= +833.333333333333
 balance_8: +1 g_8 -1 c_8 +1 d_8 -1 w_8 = +577.82805
 state_8: -0.9 c_8 +1.11111111111111 d_8 -1 E_8 +1 E_9 = +0
 charge_mode_8: +1 c_8 -833.333333333333 z_8 <= +0
 discharge_mode_8: +1 d_8 +833.333333333333 z_8 <= +833.333333333333
 balance_9: +1 g_9 -1 c_9 +1 d_9 -1 w_9 = +580.41545
 state_9: -0.9 c_9 +1.11111111111111 d_9 -1 E_9 +1 E_10 = +0
 charge_mode_9: +1 c_9 -833.333333333333 z_9 <= +0
 discharge_mode_9: +1 d_9 +833.333333333333 z_9 <= +833.333333333333
 balance_10: +1 g_10 -1 c_10 +1 d_10 -1 w_10 = +582.514016666667
 state_10: -0.9 c_10 +1.11111111111111 d_10 -1 E_10 +1 E_11 = +0
 charge_mode_10: +1 c_10 -833.333333333333 z_10 <= +0
 discharge_mode_10: +1 d_10 +833.333333333333 z_10 <= +833.333333333333
 balance_11: +1 g_11 -1 c_11 +1 d_11 -1 w_11 = +583.07405
 state_11: -0.9 c_11 +1.11111111111111 d_11 -1 E_11 +1 E_12 = +0
 charge_mode_11: +1 c_11 -833.333333333333 z_11 <= +0
 discharge_mode_11: +1 d_11 +833.333333333333 z_11 <= +833.333333333333
 balance_12: +1 g_12 -1 c_12 +1 d_12 -1 w_12 = +584.204916666667
 state_12: -0.9 c_12 +1.11111111111111 d_12 -1 E_12 +1 E_13 = +0
 charge_mode_12: +1 c_12 -833.333333333333 z_12 <= +0
 discharge_mode_12: +1 d_12 +833.333333333333 z_12 <= +833.333333333333
 balance_13: +1 g_13 -1 c_13 +1 d_13 -1 w_13 = +585.439783333333
 state_13: -0.9 c_13 +1.11111111111111 d_13 -1 E_13 +1 E_14 = +0
 charge_mode_13: +1 c_13 -833.333333333333 z_13 <= +0
 discharge_mode_13: +1 d_13 +833.333333333333 z_13 <= +833.333333333333
 balance_14: +1 g_14 -1 c_14 +1 d_14 -1 w_14 = +586.14475
 state_14: -0.9 c_14 +1.11111111111111 d_14 -1 E_14 +1 E_15 = +0
 charge_mode_14: +1 c_14 -833.333333333333 z_14 <= +0
 discharge_mode_14: +1 d_14 +833.333333333333 z_14 <= +833.333333333333
 balance_15: +1 g_15 -1 c_15 +1 d_15 -1 w_15 = +586.320766666667
 state_15: -0.9 c_15 +1.11111111111111 d_15 -1 E_15 +1 E_16 = +0
 charge_mode_15: +1 c_15 -833.333333333333 z_15 <= +0
 discharge_mode_15: +1 d_15 +833.333333333333 z_15 <= +833.333333333333
 balance_16: +1 g_16 -1 c_16 +1 d_16 -1 w_16 = +586.4253
 state_16: -0.9 c_16 +1.11111111111111 d_16 -1 E_16 +1 E_17 = +0
 charge_mode_16: +1 c_16 -833.333333333333 z_16 <= +0
 discharge_mode_16: +1 d_16 +833.333333333333 z_16 <= +833.333333333333
 balance_17: +1 g_17 -1 c_17 +1 d_17 -1 w_17 = +586.8496
 state_17: -0.9 c_17 +1.11111111111111 d_17 -1 E_17 +1 E_18 = +0
 charge_mode_17: +1 c_17 -833.333333333333 z_17 <= +0
 discharge_mode_17: +1 d_17 +833.333333333333 z_17 <= +833.333333333333
 balance_18: +1 g_18 -1 c_18 +1 d_18 -1 w_18 = +587.821016666667
 state_18: -0.9 c_18 +1.11111111111111 d_18 -1 E_18 +1 E_19 = +0
 charge_mode_18: +1 c_18 -833.333333333333 z_18 <= +0
 discharge_mode_18: +1 d_18 +833.333333333333 z_18 <= +833.333333333333
 balance_19: +1 g_19 -1 c_19 +1 d_19 -1 w_19 = +589.547566666667
 state_19: -0.9 c_19 +1.11111111111111 d_19 -1 E_19 +1 E_20 = +0
 charge_mode_19: +1 c_19 -833.333333333333 z_19 <= +0
 discharge_mode_19: +1 d_19 +833.333333333333 z_19 <= +833.333333333333
 balance_20: +1 g_20 -1 c_20 +1 d_20 -1 w_20 = +590.813466666667
 state_20: -0.9 c_20 +1.11111111111111 d_20 -1 E_20 +1 E_21 = +0
 charge_mode_20: +1 c_20 -833.333333333333 z_20 <= +0
 discharge_mode_20: +1 d_20 +833.333333333333 z_20 <= +833.333333333333
 balance_21: +1 g_21 -1 c_21 +1 d_21 -1 w_21 = +590.213116666667
 state_21: -0.9 c_21 +1.11111111111111 d_21 -1 E_21 +1 E_22 = +0
 charge_mode_21: +1 c_21 -833.333333333333 z_21 <= +0
 discharge_mode_21: +1 d_21 +833.333333333333 z_21 <= +833.333333333333
 balance_22: +1 g_22 -1 c_22 +1 d_22 -1 w_22 = +591.066266666667
 state_22: -0.9 c_22 +1.11111111111111 d_22 -1 E_22 +1 E_23 = +0
 charge_mode_22: +1 c_22 -833.333333333333 z_22 <= +0
 discharge_mode_22: +1 d_22 +833.333333333333 z_22 <= +833.333333333333
 balance_23: +1 g_23 -1 c_23 +1 d_23 -1 w_23 = +593.367833333333
 state_23: -0.9 c_23 +1.11111111111111 d_23 -1 E_23 +1 E_24 = +0
 charge_mode_23: +1 c_23 -833.333333333333 z_23 <= +0
 discharge_mode_23: +1 d_23 +833.333333333333 z_23 <= +833.333333333333
 balance_24: +1 g_24 -1 c_24 +1 d_24 -1 w_24 = +593.659683333333
 state_24: -0.9 c_24 +1.11111111111111 d_24 -1 E_24 +1 E_25 = +0
 charge_mode_24: +1 c_24 -833.333333333333 z_24 <= +0
 discharge_mode_24: +1 d_24 +833.333333333333 z_24 <= +833.333333333333
 balance_25: +1 g_25 -1 c_25 +1 d_25 -1 w_25 = +592.786383333333
 state_25: -0.9 c_25 +1.11111111111111 d_25 -1 E_25 +1 E_26 = +0
 charge_mode_25: +1 c_25 -833.333333333333 z_25 <= +0
 discharge_mode_25: +1 d_25 +833.333333333333 z_25 <= +833.333333333333
 balance_26: +1 g_26 -1 c_26 +1 d_26 -1 w_26 = +593.337866666667
 state_26: -0.9 c_26 +1.11111111111111 d_26 -1 E_26 +1 E_27 = +0
 charge_mode_26: +1 c_26 -833.333333333333 z_26 <= +0
 discharge_mode_26: +1 d_26 +833.333333333333 z_26 <= +833.333333333333
 balance_27: +1 g_27 -1 c_27 +1 d_27 -1 w_27 = +596.675766666667
 state_27: -0.9 c_27 +1.11111111111111 d_27 -1 E_27 +1 E_28 = +0
 charge_mode_27: +1 c_27 -833.333333333333 z_27 <= +0
 discharge_mode_27: +1 d_27 +833.333333333333 z_27 <= +833.333333333333
 balance_28: +1 g_28 -1 c_28 +1 d_28 -1 w_28 = +597.78025
 state_28: -0.9 c_28 +1.11111111111111 d_28 -1 E_28 +1 E_29 = +0
 charge_mode_28: +1 c_28 -833.333333333333 z_28 <= +0
 discharge_mode_28: +1 d_28 +833.333333333333 z_28 <= +833.333333333333
 balance_29: +1 g_29 -1 c_29 +1 d_29 -1 w_29 = +595.1625
 state_29: -0.9 c_29 +1.11111111111111 d_29 -1 E_29 +1 E_30 = +0
 charge_mode_29: +1 c_29 -833.333333333333 z_29 <= +0
 discharge_mode_29: +1 d_29 +833.333333333333 z_29 <= +833.333333333333
 balance_30: +1 g_30 -1 c_30 +1 d_30 -1 w_30 = +590.6065
 state_30: -0.9 c_30 +1.11111111111111 d_30 -1 E_30 +1 E_31 = +0
 charge_mode_30: +1 c_30 -833.333333333333 z_30 <= +0
 discharge_mode_30: +1 d_30 +833.333333333333 z_30 <= +833.333333333333
 balance_31: +1 g_31 -1 c_31 +1 d_31 -1 w_31 = +589.485183333333
 state_31: -0.9 c_31 +1.11111111111111 d_31 -1 E_31 +1 E_32 = +0
 charge_mode_31: +1 c_31 -833.333333333333 z_31 <= +0
 discharge_mode_31: +1 d_31 +833.333333333333 z_31 <= +833.333333333333
 balance_32: +1 g_32 -1 c_32 +1 d_32 -1 w_32 = +578.45545
 state_32: -0.9 c_32 +1.11111111111111 d_32 -1 E_32 +1 E_33 = +0
 charge_mode_32: +1 c_32 -833.333333333333 z_32 <= +0
 discharge_mode_32: +1 d_32 +833.333333333333 z_32 <= +833.333333333333
 balance_33: +1 g_33 -1 c_33 +1 d_33 -1 w_33 = +550.32645
 state_33: -0.9 c_33 +1.11111111111111 d_33 -1 E_33 +1 E_34 = +0
 charge_mode_33: +1 c_33 -833.333333333333 z_33 <= +0
 discharge_mode_33: +1 d_33 +833.333333333333 z_33 <= +833.333333333333
 balance_34: +1 g_34 -1 c_34 +1 d_34 -1 w_34 = +591.1402
 state_34: -0.9 c_34 +1.11111111111111 d_34 -1 E_34 +1 E_35 = +0
 charge_mode_34: +1 c_34 -833.333333333333 z_34 <= +0
 discharge_mode_34: +1 d_34 +833.333333333333 z_34 <= +833.333333333333
 balance_35: +1 g_35 -1 c_35 +1 d_35 -1 w_35 = +668.253883333333
 state_35: -0.9 c_35 +1.11111111111111 d_35 -1 E_35 +1 E_36 = +0
 charge_mode_35: +1 c_35 -833.333333333333 z_35 <= +0
 discharge_mode_35: +1 d_35 +833.333333333333 z_35 <= +833.333333333333
 balance_36: +1 g_36 -1 c_36 +1 d_36 -1 w_36 = +655.455333333333
 state_36: -0.9 c_36 +1.11111111111111 d_36 -1 E_36 +1 E_37 = +0
 charge_mode_36: +1 c_36 -833.333333333333 z_36 <= +0
 discharge_mode_36: +1 d_36 +833.333333333333 z_36 <= +833.333333333333
 balance_37: +1 g_37 -1 c_37 +1 d_37 -1 w_37 = +616.504033333333
 state_37: -0.9 c_37 +1.11111111111111 d_37 -1 E_37 +1 E_38 = +0
 charge_mode_37: +1 c_37 -833.333333333333 z_37 <= +0
 discharge_mode_37: +1 d_37 +833.333333333333 z_37 <= +833.333333333333
 balance_38: +1 g_38 -1 c_38 +1 d_38 -1 w_38 = +591.454483333333
 state_38: -0.9 c_38 +1.11111111111111 d_38 -1 E_38 +1 E_39 = +0
 charge_mode_38: +1 c_38 -833.333333333333 z_38 <= +0
 discharge_mode_38: +1 d_38 +833.333333333333 z_38 <= +833.333333333333
 balance_39: +1 g_39 -1 c_39 +1 d_39 -1 w_39 = +557.486866666667
 state_39: -0.9 c_39 +1.11111111111111 d_39 -1 E_39 +1 E_40 = +0
 charge_mode_39: +1 c_39 -833.333333333333 z_39 <= +0
 discharge_mode_39: +1 d_39 +833.333333333333 z_39 <= +833.333333333333
 balance_40: +1 g_40 -1 c_40 +1 d_40 -1 w_40 = +529.2397
 state_40: -0.9 c_40 +1.11111111111111 d_40 -1 E_40 +1 E_41 = +0
 charge_mode_40: +1 c_40 -833.333333333333 z_40 <= +0
 discharge_mode_40: +1 d_40 +833.333333333333 z_40 <= +833.333333333333
 balance_41: +1 g_41 -1 c_41 +1 d_41 -1 w_41 = +502.470716666667
 state_41: -0.9 c_41 +1.11111111111111 d_41 -1 E_41 +1 E_42 = +0
 charge_mode_41: +1 c_41 -833.333333333333 z_41 <= +0
 discharge_mode_41: +1 d_41 +833.333333333333 z_41 <= +833.333333333333
 balance_42: +1 g_42 -1 c_42 +1 d_42 -1 w_42 = +455.443566666667
 state_42: -0.9 c_42 +1.11111111111111 d_42 -1 E_42 +1 E_43 = +0
 charge_mode_42: +1 c_42 -833.333333333333 z_42 <= +0
 discharge_mode_42: +1 d_42 +833.333333333333 z_42 <= +833.333333333333
 balance_43: +1 g_43 -1 c_43 +1 d_43 -1 w_43 = +410.0667
 state_43: -0.9 c_43 +1.11111111111111 d_43 -1 E_43 +1 E_44 = +0
 charge_mode_43: +1 c_43 -833.333333333333 z_43 <= +0
 discharge_mode_43: +1 d_43 +833.333333333333 z_43 <= +833.333333333333
 balance_44: +1 g_44 -1 c_44 +1 d_44 -1 w_44 = +356.996783333333
 state_44: -0.9 c_44 +1.11111111111111 d_44 -1 E_44 +1 E_45 = +0
 charge_mode_44: +1 c_44 -833.333333333333 z_44 <= +0
 discharge_mode_44: +1 d_44 +833.333333333333 z_44 <= +833.333333333333
 balance_45: +1 g_45 -1 c_45 +1 d_45 -1 w_45 = +283.363566666667
 state_45: -0.9 c_45 +1.11111111111111 d_45 -1 E_45 +1 E_46 = +0
 charge_mode_45: +1 c_45 -833.333333333333 z_45 <= +0
 discharge_mode_45: +1 d_45 +833.333333333333 z_45 <= +833.333333333333
 balance_46: +1 g_46 -1 c_46 +1 d_46 -1 w_46 = +320.684116666667
 state_46: -0.9 c_46 +1.11111111111111 d_46 -1 E_46 +1 E_47 = +0
 charge_mode_46: +1 c_46 -833.333333333333 z_46 <= +0
 discharge_mode_46: +1 d_46 +833.333333333333 z_46 <= +833.333333333333
 balance_47: +1 g_47 -1 c_47 +1 d_47 -1 w_47 = +418.42145
 state_47: -0.9 c_47 +1.11111111111111 d_47 -1 E_47 +1 E_48 = +0
 charge_mode_47: +1 c_47 -833.333333333333 z_47 <= +0
 discharge_mode_47: +1 d_47 +833.333333333333 z_47 <= +833.333333333333
 balance_48: +1 g_48 -1 c_48 +1 d_48 -1 w_48 = +381.910783333333
 state_48: -0.9 c_48 +1.11111111111111 d_48 -1 E_48 +1 E_49 = +0
 charge_mode_48: +1 c_48 -833.333333333333 z_48 <= +0
 discharge_mode_48: +1 d_48 +833.333333333333 z_48 <= +833.333333333333
 balance_49: +1 g_49 -1 c_49 +1 d_49 -1 w_49 = +309.55635
 state_49: -0.9 c_49 +1.11111111111111 d_49 -1 E_49 +1 E_50 = +0
 charge_mode_49: +1 c_49 -833.333333333333 z_49 <= +0
 discharge_mode_49: +1 d_49 +833.333333333333 z_49 <= +833.333333333333
 balance_50: +1 g_50 -1 c_50 +1 d_50 -1 w_50 = +264.6194
 state_50: -0.9 c_50 +1.11111111111111 d_50 -1 E_50 +1 E_51 = +0
 charge_mode_50: +1 c_50 -833.333333333333 z_50 <= +0
 discharge_mode_50: +1 d_50 +833.333333333333 z_50 <= +833.333333333333
 balance_51: +1 g_51 -1 c_51 +1 d_51 -1 w_51 = +213.7408
 state_51: -0.9 c_51 +1.11111111111111 d_51 -1 E_51 +1 E_52 = +0
 charge_mode_51: +1 c_51 -833.333333333333 z_51 <= +0
 discharge_mode_51: +1 d_51 +833.333333333333 z_51 <= +833.333333333333
 balance_52: +1 g_52 -1 c_52 +1 d_52 -1 w_52 = +178.558916666667
 state_52: -0.9 c_52 +1.11111111111111 d_52 -1 E_52 +1 E_53 = +0
 charge_mode_52: +1 c_52 -833.333333333333 z_52 <= +0
 discharge_mode_52: +1 d_52 +833.333333333333 z_52 <= +833.333333333333
 balance_53: +1 g_53 -1 c_53 +1 d_53 -1 w_53 = +155.392116666667
 state_53: -0.9 c_53 +1.11111111111111 d_53 -1 E_53 +1 E_54 = +0
 charge_mode_53: +1 c_53 -833.333333333333 z_53 <= +0
 discharge_mode_53: +1 d_53 +833.333333333333 z_53 <= +833.333333333333
 balance_54: +1 g_54 -1 c_54 +1 d_54 -1 w_54 = +112.2595
 state_54: -0.9 c_54 +1.11111111111111 d_54 -1 E_54 +1 E_55 = +0
 charge_mode_54: +1 c_54 -833.333333333333 z_54 <= +0
 discharge_mode_54: +1 d_54 +833.333333333333 z_54 <= +833.333333333333
 balance_55: +1 g_55 -1 c_55 +1 d_55 -1 w_55 = +64.3968666666666
 state_55: -0.9 c_55 +1.11111111111111 d_55 -1 E_55 +1 E_56 = +0
 charge_mode_55: +1 c_55 -833.333333333333 z_55 <= +0
 discharge_mode_55: +1 d_55 +833.333333333333 z_55 <= +833.333333333333
 balance_56: +1 g_56 -1 c_56 +1 d_56 -1 w_56 = +22.5622499999999
 state_56: -0.9 c_56 +1.11111111111111 d_56 -1 E_56 +1 E_57 = +0
 charge_mode_56: +1 c_56 -833.333333333333 z_56 <= +0
 discharge_mode_56: +1 d_56 +833.333333333333 z_56 <= +833.333333333333
 balance_57: +1 g_57 -1 c_57 +1 d_57 -1 w_57 = -17.4240666666667
 state_57: -0.9 c_57 +1.11111111111111 d_57 -1 E_57 +1 E_58 = +0
 charge_mode_57: +1 c_57 -833.333333333333 z_57 <= +0
 discharge_mode_57: +1 d_57 +833.333333333333 z_57 <= +833.333333333333
 balance_58: +1 g_58 -1 c_58 +1 d_58 -1 w_58 = -52.8377666666668
 state_58: -0.9 c_58 +1.11111111111111 d_58 -1 E_58 +1 E_59 = +0
 charge_mode_58: +1 c_58 -833.333333333333 z_58 <= +0
 discharge_mode_58: +1 d_58 +833.333333333333 z_58 <= +833.333333333333
 balance_59: +1 g_59 -1 c_59 +1 d_59 -1 w_59 = -84.5624166666665
 state_59: -0.9 c_59 +1.11111111111111 d_59 -1 E_59 +1 E_60 = +0
 charge_mode_59: +1 c_59 -833.333333333333 z_59 <= +0
 discharge_mode_59: +1 d_59 +833.333333333333 z_59 <= +833.333333333333
 balance_60: +1 g_60 -1 c_60 +1 d_60 -1 w_60 = -116.983583333333
 state_60: -0.9 c_60 +1.11111111111111 d_60 -1 E_60 +1 E_61 = +0
 charge_mode_60: +1 c_60 -833.333333333333 z_60 <= +0
 discharge_mode_60: +1 d_60 +833.333333333333 z_60 <= +833.333333333333
 balance_61: +1 g_61 -1 c_61 +1 d_61 -1 w_61 = -146.6606
 state_61: -0.9 c_61 +1.11111111111111 d_61 -1 E_61 +1 E_62 = +0
 charge_mode_61: +1 c_61 -833.333333333333 z_61 <= +0
 discharge_mode_61: +1 d_61 +833.333333333333 z_61 <= +833.333333333333
 balance_62: +1 g_62 -1 c_62 +1 d_62 -1 w_62 = -173.52025
 state_62: -0.9 c_62 +1.11111111111111 d_62 -1 E_62 +1 E_63 = +0
 charge_mode_62: +1 c_62 -833.333333333333 z_62 <= +0
 discharge_mode_62: +1 d_62 +833.333333333333 z_62 <= +833.333333333333
 balance_63: +1 g_63 -1 c_63 +1 d_63 -1 w_63 = -201.029083333333
 state_63: -0.9 c_63 +1.11111111111111 d_63 -1 E_63 +1 E_64 = +0
 charge_mode_63: +1 c_63 -833.333333333333 z_63 <= +0
 discharge_mode_63: +1 d_63 +833.333333333333 z_63 <= +833.333333333333
 balance_64: +1 g_64 -1 c_64 +1 d_64 -1 w_64 = -225.406116666666
 state_64: -0.9 c_64 +1.11111111111111 d_64 -1 E_64 +1 E_65 = +0
 charge_mode_64: +1 c_64 -833.333333333333 z_64 <= +0
 discharge_mode_64: +1 d_64 +833.333333333333 z_64 <= +833.333333333333
 balance_65: +1 g_65 -1 c_65 +1 d_65 -1 w_65 = -244.00925
 state_65: -0.9 c_65 +1.11111111111111 d_65 -1 E_65 +1 E_66 = +0
 charge_mode_65: +1 c_65 -833.333333333333 z_65 <= +0
 discharge_mode_65: +1 d_65 +833.333333333333 z_65 <= +833.333333333333
 balance_66: +1 g_66 -1 c_66 +1 d_66 -1 w_66 = -258.162416666667
 state_66: -0.9 c_66 +1.11111111111111 d_66 -1 E_66 +1 E_67 = +0
 charge_mode_66: +1 c_66 -833.333333333333 z_66 <= +0
 discharge_mode_66: +1 d_66 +833.333333333333 z_66 <= +833.333333333333
 balance_67: +1 g_67 -1 c_67 +1 d_67 -1 w_67 = -272.631533333333
 state_67: -0.9 c_67 +1.11111111111111 d_67 -1 E_67 +1 E_68 = +0
 charge_mode_67: +1 c_67 -833.333333333333 z_67 <= +0
 discharge_mode_67: +1 d_67 +833.333333333333 z_67 <= +833.333333333333
 balance_68: +1 g_68 -1 c_68 +1 d_68 -1 w_68 = -284.320983333333
 state_68: -0.9 c_68 +1.11111111111111 d_68 -1 E_68 +1 E_69 = +0
 charge_mode_68: +1 c_68 -833.333333333333 z_68 <= +0
 discharge_mode_68: +1 d_68 +833.333333333333 z_68 <= +833.333333333333
 balance_69: +1 g_69 -1 c_69 +1 d_69 -1 w_69 = -289.301466666667
 state_69: -0.9 c_69 +1.11111111111111 d_69 -1 E_69 +1 E_70 = +0
 charge_mode_69: +1 c_69 -833.333333333333 z_69 <= +0
 discharge_mode_69: +1 d_69 +833.333333333333 z_69 <= +833.333333333333
 balance_70: +1 g_70 -1 c_70 +1 d_70 -1 w_70 = -313.208816666667
 state_70: -0.9 c_70 +1.11111111111111 d_70 -1 E_70 +1 E_71 = +0
 charge_mode_70: +1 c_70 -833.333333333333 z_70 <= +0
 discharge_mode_70: +1 d_70 +833.333333333333 z_70 <= +833.333333333333
 balance_71: +1 g_71 -1 c_71 +1 d_71 -1 w_71 = -346.930433333334
 state_71: -0.9 c_71 +1.11111111111111 d_71 -1 E_71 +1 E_72 = +0
 charge_mode_71: +1 c_71 -833.333333333333 z_71 <= +0
 discharge_mode_71: +1 d_71 +833.333333333333 z_71 <= +833.333333333333
 balance_72: +1 g_72 -1 c_72 +1 d_72 -1 w_72 = -352.920883333333
 state_72: -0.9 c_72 +1.11111111111111 d_72 -1 E_72 +1 E_73 = +0
 charge_mode_72: +1 c_72 -833.333333333333 z_72 <= +0
 discharge_mode_72: +1 d_72 +833.333333333333 z_72 <= +833.333333333333
 balance_73: +1 g_73 -1 c_73 +1 d_73 -1 w_73 = -348.033333333333
 state_73: -0.9 c_73 +1.11111111111111 d_73 -1 E_73 +1 E_74 = +0
 charge_mode_73: +1 c_73 -833.333333333333 z_73 <= +0
 discharge_mode_73: +1 d_73 +833.333333333333 z_73 <= +833.333333333333
 balance_74: +1 g_74 -1 c_74 +1 d_74 -1 w_74 = -344.726366666667
 state_74: -0.9 c_74 +1.11111111111111 d_74 -1 E_74 +1 E_75 = +0
 charge_mode_74: +1 c_74 -833.333333333333 z_74 <= +0
 discharge_mode_74: +1 d_74 +833.333333333333 z_74 <= +833.333333333333
 balance_75: +1 g_75 -1 c_75 +1 d_75 -1 w_75 = -335.0626
 state_75: -0.9 c_75 +1.11111111111111 d_75 -1 E_75 +1 E_76 = +0
 charge_mode_75: +1 c_75 -833.333333333333 z_75 <= +0
 discharge_mode_75: +1 d_75 +833.333333333333 z_75 <= +833.333333333333
 balance_76: +1 g_76 -1 c_76 +1 d_76 -1 w_76 = -304.551766666667
 state_76: -0.9 c_76 +1.11111111111111 d_76 -1 E_76 +1 E_77 = +0
 charge_mode_76: +1 c_76 -833.333333333333 z_76 <= +0
 discharge_mode_76: +1 d_76 +833.333333333333 z_76 <= +833.333333333333
 balance_77: +1 g_77 -1 c_77 +1 d_77 -1 w_77 = -264.507183333333
 state_77: -0.9 c_77 +1.11111111111111 d_77 -1 E_77 +1 E_78 = +0
 charge_mode_77: +1 c_77 -833.333333333333 z_77 <= +0
 discharge_mode_77: +1 d_77 +833.333333333333 z_77 <= +833.333333333333
 balance_78: +1 g_78 -1 c_78 +1 d_78 -1 w_78 = -242.50755
 state_78: -0.9 c_78 +1.11111111111111 d_78 -1 E_78 +1 E_79 = +0
 charge_mode_78: +1 c_78 -833.333333333333 z_78 <= +0
 discharge_mode_78: +1 d_78 +833.333333333333 z_78 <= +833.333333333333
 balance_79: +1 g_79 -1 c_79 +1 d_79 -1 w_79 = -223.075583333333
 state_79: -0.9 c_79 +1.11111111111111 d_79 -1 E_79 +1 E_80 = +0
 charge_mode_79: +1 c_79 -833.333333333333 z_79 <= +0
 discharge_mode_79: +1 d_79 +833.333333333333 z_79 <= +833.333333333333
 balance_80: +1 g_80 -1 c_80 +1 d_80 -1 w_80 = -198.759316666667
 state_80: -0.9 c_80 +1.11111111111111 d_80 -1 E_80 +1 E_81 = +0
 charge_mode_80: +1 c_80 -833.333333333333 z_80 <= +0
 discharge_mode_80: +1 d_80 +833.333333333333 z_80 <= +833.333333333333
 balance_81: +1 g_81 -1 c_81 +1 d_81 -1 w_81 = -177.359816666667
 state_81: -0.9 c_81 +1.11111111111111 d_81 -1 E_81 +1 E_82 = +0
 charge_mode_81: +1 c_81 -833.333333333333 z_81 <= +0
 discharge_mode_81: +1 d_81 +833.333333333333 z_81 <= +833.333333333333
 balance_82: +1 g_82 -1 c_82 +1 d_82 -1 w_82 = -151.7403
 state_82: -0.9 c_82 +1.11111111111111 d_82 -1 E_82 +1 E_83 = +0
 charge_mode_82: +1 c_82 -833.333333333333 z_82 <= +0
 discharge_mode_82: +1 d_82 +833.333333333333 z_82 <= +833.333333333333
 balance_83: +1 g_83 -1 c_83 +1 d_83 -1 w_83 = -120.035033333333
 state_83: -0.9 c_83 +1.11111111111111 d_83 -1 E_83 +1 E_84 = +0
 charge_mode_83: +1 c_83 -833.333333333333 z_83 <= +0
 discharge_mode_83: +1 d_83 +833.333333333333 z_83 <= +833.333333333333
 balance_84: +1 g_84 -1 c_84 +1 d_84 -1 w_84 = -87.81445
 state_84: -0.9 c_84 +1.11111111111111 d_84 -1 E_84 +1 E_85 = +0
 charge_mode_84: +1 c_84 -833.333333333333 z_84 <= +0
 discharge_mode_84: +1 d_84 +833.333333333333 z_84 <= +833.333333333333
 balance_85: +1 g_85 -1 c_85 +1 d_85 -1 w_85 = -53.6248666666665
 state_85: -0.9 c_85 +1.11111111111111 d_85 -1 E_85 +1 E_86 = +0
 charge_mode_85: +1 c_85 -833.333333333333 z_85 <= +0
 discharge_mode_85: +1 d_85 +833.333333333333 z_85 <= +833.333333333333
 balance_86: +1 g_86 -1 c_86 +1 d_86 -1 w_86 = -16.2551333333333
 state_86: -0.9 c_86 +1.11111111111111 d_86 -1 E_86 +1 E_87 = +0
 charge_mode_86: +1 c_86 -833.333333333333 z_86 <= +0
 discharge_mode_86: +1 d_86 +833.333333333333 z_86 <= +833.333333333333
 balance_87: +1 g_87 -1 c_87 +1 d_87 -1 w_87 = +23.7813666666667
 state_87: -0.9 c_87 +1.11111111111111 d_87 -1 E_87 +1 E_88 = +0
 charge_mode_87: +1 c_87 -833.333333333333 z_87 <= +0
 discharge_mode_87: +1 d_87 +833.333333333333 z_87 <= +833.333333333333
 balance_88: +1 g_88 -1 c_88 +1 d_88 -1 w_88 = +67.3200166666667
 state_88: -0.9 c_88 +1.11111111111111 d_88 -1 E_88 +1 E_89 = +0
 charge_mode_88: +1 c_88 -833.333333333333 z_88 <= +0
 discharge_mode_88: +1 d_88 +833.333333333333 z_88 <= +833.333333333333
 balance_89: +1 g_89 -1 c_89 +1 d_89 -1 w_89 = +112.089866666667
 state_89: -0.9 c_89 +1.11111111111111 d_89 -1 E_89 +1 E_90 = +0
 charge_mode_89: +1 c_89 -833.333333333333 z_89 <= +0
 discharge_mode_89: +1 d_89 +833.333333333333 z_89 <= +833.333333333333
 balance_90: +1 g_90 -1 c_90 +1 d_90 -1 w_90 = +154.26185
 state_90: -0.9 c_90 +1.11111111111111 d_90 -1 E_90 +1 E_91 = +0
 charge_mode_90: +1 c_90 -833.333333333333 z_90 <= +0
 discharge_mode_90: +1 d_90 +833.333333333333 z_90 <= +833.333333333333
 balance_91: +1 g_91 -1 c_91 +1 d_91 -1 w_91 = +197.523516666667
 state_91: -0.9 c_91 +1.11111111111111 d_91 -1 E_91 +1 E_92 = +0
 charge_mode_91: +1 c_91 -833.333333333333 z_91 <= +0
 discharge_mode_91: +1 d_91 +833.333333333333 z_91 <= +833.333333333333
 balance_92: +1 g_92 -1 c_92 +1 d_92 -1 w_92 = +244.814033333333
 state_92: -0.9 c_92 +1.11111111111111 d_92 -1 E_92 +1 E_93 = +0
 charge_mode_92: +1 c_92 -833.333333333333 z_92 <= +0
 discharge_mode_92: +1 d_92 +833.333333333333 z_92 <= +833.333333333333
 balance_93: +1 g_93 -1 c_93 +1 d_93 -1 w_93 = +295.534616666667
 state_93: -0.9 c_93 +1.11111111111111 d_93 -1 E_93 +1 E_94 = +0
 charge_mode_93: +1 c_93 -833.333333333333 z_93 <= +0
 discharge_mode_93: +1 d_93 +833.333333333333 z_93 <= +833.333333333333
 balance_94: +1 g_94 -1 c_94 +1 d_94 -1 w_94 = +345.7775
 state_94: -0.9 c_94 +1.11111111111111 d_94 -1 E_94 +1 E_95 = +0
 charge_mode_94: +1 c_94 -833.333333333333 z_94 <= +0
 discharge_mode_94: +1 d_94 +833.333333333333 z_94 <= +833.333333333333
 balance_95: +1 g_95 -1 c_95 +1 d_95 -1 w_95 = +394.931483333333
 state_95: -0.9 c_95 +1.11111111111111 d_95 -1 E_95 +1 E_96 = +0
 charge_mode_95: +1 c_95 -833.333333333333 z_95 <= +0
 discharge_mode_95: +1 d_95 +833.333333333333 z_95 <= +833.333333333333
 balance_96: +1 g_96 -1 c_96 +1 d_96 -1 w_96 = +445.43165
 state_96: -0.9 c_96 +1.11111111111111 d_96 -1 E_96 +1 E_97 = +0
 charge_mode_96: +1 c_96 -833.333333333333 z_96 <= +0
 discharge_mode_96: +1 d_96 +833.333333333333 z_96 <= +833.333333333333
 balance_97: +1 g_97 -1 c_97 +1 d_97 -1 w_97 = +495.696583333333
 state_97: -0.9 c_97 +1.11111111111111 d_97 -1 E_97 +1 E_98 = +0
 charge_mode_97: +1 c_97 -833.333333333333 z_97 <= +0
 discharge_mode_97: +1 d_97 +833.333333333333 z_97 <= +833.333333333333
 balance_98: +1 g_98 -1 c_98 +1 d_98 -1 w_98 = +547.11905
 state_98: -0.9 c_98 +1.11111111111111 d_98 -1 E_98 +1 E_99 = +0
 charge_mode_98: +1 c_98 -833.333333333333 z_98 <= +0
 discharge_mode_98: +1 d_98 +833.333333333333 z_98 <= +833.333333333333
 balance_99: +1 g_99 -1 c_99 +1 d_99 -1 w_99 = +599.985433333333
 state_99: -0.9 c_99 +1.11111111111111 d_99 -1 E_99 +1 E_100 = +0
 charge_mode_99: +1 c_99 -833.333333333333 z_99 <= +0
 discharge_mode_99: +1 d_99 +833.333333333333 z_99 <= +833.333333333333
 balance_100: +1 g_100 -1 c_100 +1 d_100 -1 w_100 = +635.42975
 state_100: -0.9 c_100 +1.11111111111111 d_100 -1 E_100 +1 E_101 = +0
 charge_mode_100: +1 c_100 -833.333333333333 z_100 <= +0
 discharge_mode_100: +1 d_100 +833.333333333333 z_100 <= +833.333333333333
 balance_101: +1 g_101 -1 c_101 +1 d_101 -1 w_101 = +660.830683333333
 state_101: -0.9 c_101 +1.11111111111111 d_101 -1 E_101 +1 E_102 = +0
 charge_mode_101: +1 c_101 -833.333333333333 z_101 <= +0
 discharge_mode_101: +1 d_101 +833.333333333333 z_101 <= +833.333333333333
 balance_102: +1 g_102 -1 c_102 +1 d_102 -1 w_102 = +702.036933333333
 state_102: -0.9 c_102 +1.11111111111111 d_102 -1 E_102 +1 E_103 = +0
 charge_mode_102: +1 c_102 -833.333333333333 z_102 <= +0
 discharge_mode_102: +1 d_102 +833.333333333333 z_102 <= +833.333333333333
 balance_103: +1 g_103 -1 c_103 +1 d_103 -1 w_103 = +738.065783333333
 state_103: -0.9 c_103 +1.11111111111111 d_103 -1 E_103 +1 E_104 = +0
 charge_mode_103: +1 c_103 -833.333333333333 z_103 <= +0
 discharge_mode_103: +1 d_103 +833.333333333333 z_103 <= +833.333333333333
 balance_104: +1 g_104 -1 c_104 +1 d_104 -1 w_104 = +775.944716666667
 state_104: -0.9 c_104 +1.11111111111111 d_104 -1 E_104 +1 E_105 = +0
 charge_mode_104: +1 c_104 -833.333333333333 z_104 <= +0
 discharge_mode_104: +1 d_104 +833.333333333333 z_104 <= +833.333333333333
 balance_105: +1 g_105 -1 c_105 +1 d_105 -1 w_105 = +826.08325
 state_105: -0.9 c_105 +1.11111111111111 d_105 -1 E_105 +1 E_106 = +0
 charge_mode_105: +1 c_105 -833.333333333333 z_105 <= +0
 discharge_mode_105: +1 d_105 +833.333333333333 z_105 <= +833.333333333333
 balance_106: +1 g_106 -1 c_106 +1 d_106 -1 w_106 = +762.4228
 state_106: -0.9 c_106 +1.11111111111111 d_106 -1 E_106 +1 E_107 = +0
 charge_mode_106: +1 c_106 -833.333333333333 z_106 <= +0
 discharge_mode_106: +1 d_106 +833.333333333333 z_106 <= +833.333333333333
 balance_107: +1 g_107 -1 c_107 +1 d_107 -1 w_107 = +636.982616666667
 state_107: -0.9 c_107 +1.11111111111111 d_107 -1 E_107 +1 E_108 = +0
 charge_mode_107: +1 c_107 -833.333333333333 z_107 <= +0
 discharge_mode_107: +1 d_107 +833.333333333333 z_107 <= +833.333333333333
 balance_108: +1 g_108 -1 c_108 +1 d_108 -1 w_108 = +641.1613
 state_108: -0.9 c_108 +1.11111111111111 d_108 -1 E_108 +1 E_109 = +0
 charge_mode_108: +1 c_108 -833.333333333333 z_108 <= +0
 discharge_mode_108: +1 d_108 +833.333333333333 z_108 <= +833.333333333333
 balance_109: +1 g_109 -1 c_109 +1 d_109 -1 w_109 = +678.830533333333
 state_109: -0.9 c_109 +1.11111111111111 d_109 -1 E_109 +1 E_110 = +0
 charge_mode_109: +1 c_109 -833.333333333333 z_109 <= +0
 discharge_mode_109: +1 d_109 +833.333333333333 z_109 <= +833.333333333333
 balance_110: +1 g_110 -1 c_110 +1 d_110 -1 w_110 = +686.2685
 state_110: -0.9 c_110 +1.11111111111111 d_110 -1 E_110 +1 E_111 = +0
 charge_mode_110: +1 c_110 -833.333333333333 z_110 <= +0
 discharge_mode_110: +1 d_110 +833.333333333333 z_110 <= +833.333333333333
 balance_111: +1 g_111 -1 c_111 +1 d_111 -1 w_111 = +696.504383333333
 state_111: -0.9 c_111 +1.11111111111111 d_111 -1 E_111 +1 E_112 = +0
 charge_mode_111: +1 c_111 -833.333333333333 z_111 <= +0
 discharge_mode_111: +1 d_111 +833.333333333333 z_111 <= +833.333333333333
 balance_112: +1 g_112 -1 c_112 +1 d_112 -1 w_112 = +704.634266666667
 state_112: -0.9 c_112 +1.11111111111111 d_112 -1 E_112 +1 E_113 = +0
 charge_mode_112: +1 c_112 -833.333333333333 z_112 <= +0
 discharge_mode_112: +1 d_112 +833.333333333333 z_112 <= +833.333333333333
 balance_113: +1 g_113 -1 c_113 +1 d_113 -1 w_113 = +706.484033333333
 state_113: -0.9 c_113 +1.11111111111111 d_113 -1 E_113 +1 E_114 = +0
 charge_mode_113: +1 c_113 -833.333333333333 z_113 <= +0
 discharge_mode_113: +1 d_113 +833.333333333333 z_113 <= +833.333333333333
 balance_114: +1 g_114 -1 c_114 +1 d_114 -1 w_114 = +707.406466666667
 state_114: -0.9 c_114 +1.11111111111111 d_114 -1 E_114 +1 E_115 = +0
 charge_mode_114: +1 c_114 -833.333333333333 z_114 <= +0
 discharge_mode_114: +1 d_114 +833.333333333333 z_114 <= +833.333333333333
 balance_115: +1 g_115 -1 c_115 +1 d_115 -1 w_115 = +708.553
 state_115: -0.9 c_115 +1.11111111111111 d_115 -1 E_115 +1 E_116 = +0
 charge_mode_115: +1 c_115 -833.333333333333 z_115 <= +0
 discharge_mode_115: +1 d_115 +833.333333333333 z_115 <= +833.333333333333
 balance_116: +1 g_116 -1 c_116 +1 d_116 -1 w_116 = +709.446883333333
 state_116: -0.9 c_116 +1.11111111111111 d_116 -1 E_116 +1 E_117 = +0
 charge_mode_116: +1 c_116 -833.333333333333 z_116 <= +0
 discharge_mode_116: +1 d_116 +833.333333333333 z_116 <= +833.333333333333
 balance_117: +1 g_117 -1 c_117 +1 d_117 -1 w_117 = +711.23245
 state_117: -0.9 c_117 +1.11111111111111 d_117 -1 E_117 +1 E_118 = +0
 charge_mode_117: +1 c_117 -833.333333333333 z_117 <= +0
 discharge_mode_117: +1 d_117 +833.333333333333 z_117 <= +833.333333333333
 balance_118: +1 g_118 -1 c_118 +1 d_118 -1 w_118 = +711.6625
 state_118: -0.9 c_118 +1.11111111111111 d_118 -1 E_118 +1 E_119 = +0
 charge_mode_118: +1 c_118 -833.333333333333 z_118 <= +0
 discharge_mode_118: +1 d_118 +833.333333333333 z_118 <= +833.333333333333
 balance_119: +1 g_119 -1 c_119 +1 d_119 -1 w_119 = +711.445033333333
 state_119: -0.9 c_119 +1.11111111111111 d_119 -1 E_119 +1 E_120 = +0
 charge_mode_119: +1 c_119 -833.333333333333 z_119 <= +0
 discharge_mode_119: +1 d_119 +833.333333333333 z_119 <= +833.333333333333
 balance_120: +1 g_120 -1 c_120 +1 d_120 -1 w_120 = +713.704083333333
 state_120: -0.9 c_120 +1.11111111111111 d_120 -1 E_120 +1 E_121 = +0
 charge_mode_120: +1 c_120 -833.333333333333 z_120 <= +0
 discharge_mode_120: +1 d_120 +833.333333333333 z_120 <= +833.333333333333
 balance_121: +1 g_121 -1 c_121 +1 d_121 -1 w_121 = +715.28415
 state_121: -0.9 c_121 +1.11111111111111 d_121 -1 E_121 +1 E_122 = +0
 charge_mode_121: +1 c_121 -833.333333333333 z_121 <= +0
 discharge_mode_121: +1 d_121 +833.333333333333 z_121 <= +833.333333333333
 balance_122: +1 g_122 -1 c_122 +1 d_122 -1 w_122 = +715.22685
 state_122: -0.9 c_122 +1.11111111111111 d_122 -1 E_122 +1 E_123 = +0
 charge_mode_122: +1 c_122 -833.333333333333 z_122 <= +0
 discharge_mode_122: +1 d_122 +833.333333333333 z_122 <= +833.333333333333
 balance_123: +1 g_123 -1 c_123 +1 d_123 -1 w_123 = +715.653033333333
 state_123: -0.9 c_123 +1.11111111111111 d_123 -1 E_123 +1 E_124 = +0
 charge_mode_123: +1 c_123 -833.333333333333 z_123 <= +0
 discharge_mode_123: +1 d_123 +833.333333333333 z_123 <= +833.333333333333
 balance_124: +1 g_124 -1 c_124 +1 d_124 -1 w_124 = +715.868916666667
 state_124: -0.9 c_124 +1.11111111111111 d_124 -1 E_124 +1 E_125 = +0
 charge_mode_124: +1 c_124 -833.333333333333 z_124 <= +0
 discharge_mode_124: +1 d_124 +833.333333333333 z_124 <= +833.333333333333
 balance_125: +1 g_125 -1 c_125 +1 d_125 -1 w_125 = +717.005116666667
 state_125: -0.9 c_125 +1.11111111111111 d_125 -1 E_125 +1 E_126 = +0
 charge_mode_125: +1 c_125 -833.333333333333 z_125 <= +0
 discharge_mode_125: +1 d_125 +833.333333333333 z_125 <= +833.333333333333
 balance_126: +1 g_126 -1 c_126 +1 d_126 -1 w_126 = +720.1603
 state_126: -0.9 c_126 +1.11111111111111 d_126 -1 E_126 +1 E_127 = +0
 charge_mode_126: +1 c_126 -833.333333333333 z_126 <= +0
 discharge_mode_126: +1 d_126 +833.333333333333 z_126 <= +833.333333333333
 balance_127: +1 g_127 -1 c_127 +1 d_127 -1 w_127 = +717.054866666667
 state_127: -0.9 c_127 +1.11111111111111 d_127 -1 E_127 +1 E_128 = +0
 charge_mode_127: +1 c_127 -833.333333333333 z_127 <= +0
 discharge_mode_127: +1 d_127 +833.333333333333 z_127 <= +833.333333333333
 balance_128: +1 g_128 -1 c_128 +1 d_128 -1 w_128 = +720.445966666667
 state_128: -0.9 c_128 +1.11111111111111 d_128 -1 E_128 +1 E_129 = +0
 charge_mode_128: +1 c_128 -833.333333333333 z_128 <= +0
 discharge_mode_128: +1 d_128 +833.333333333333 z_128 <= +833.333333333333
 balance_129: +1 g_129 -1 c_129 +1 d_129 -1 w_129 = +738.134716666667
 state_129: -0.9 c_129 +1.11111111111111 d_129 -1 E_129 +1 E_130 = +0
 charge_mode_129: +1 c_129 -833.333333333333 z_129 <= +0
 discharge_mode_129: +1 d_129 +833.333333333333 z_129 <= +833.333333333333
 balance_130: +1 g_130 -1 c_130 +1 d_130 -1 w_130 = +671.693566666667
 state_130: -0.9 c_130 +1.11111111111111 d_130 -1 E_130 +1 E_131 = +0
 charge_mode_130: +1 c_130 -833.333333333333 z_130 <= +0
 discharge_mode_130: +1 d_130 +833.333333333333 z_130 <= +833.333333333333
 balance_131: +1 g_131 -1 c_131 +1 d_131 -1 w_131 = +560.456983333333
 state_131: -0.9 c_131 +1.11111111111111 d_131 -1 E_131 +1 E_132 = +0
 charge_mode_131: +1 c_131 -833.333333333333 z_131 <= +0
 discharge_mode_131: +1 d_131 +833.333333333333 z_131 <= +833.333333333333
 balance_132: +1 g_132 -1 c_132 +1 d_132 -1 w_132 = +551.565566666667
 state_132: -0.9 c_132 +1.11111111111111 d_132 -1 E_132 +1 E_133 = +0
 charge_mode_132: +1 c_132 -833.333333333333 z_132 <= +0
 discharge_mode_132: +1 d_132 +833.333333333333 z_132 <= +833.333333333333
 balance_133: +1 g_133 -1 c_133 +1 d_133 -1 w_133 = +568.82605
 state_133: -0.9 c_133 +1.11111111111111 d_133 -1 E_133 +1 E_134 = +0
 charge_mode_133: +1 c_133 -833.333333333333 z_133 <= +0
 discharge_mode_133: +1 d_133 +833.333333333333 z_133 <= +833.333333333333
 balance_134: +1 g_134 -1 c_134 +1 d_134 -1 w_134 = +563.655216666667
 state_134: -0.9 c_134 +1.11111111111111 d_134 -1 E_134 +1 E_135 = +0
 charge_mode_134: +1 c_134 -833.333333333333 z_134 <= +0
 discharge_mode_134: +1 d_134 +833.333333333333 z_134 <= +833.333333333333
 balance_135: +1 g_135 -1 c_135 +1 d_135 -1 w_135 = +564.426533333333
 state_135: -0.9 c_135 +1.11111111111111 d_135 -1 E_135 +1 E_136 = +0
 charge_mode_135: +1 c_135 -833.333333333333 z_135 <= +0
 discharge_mode_135: +1 d_135 +833.333333333333 z_135 <= +833.333333333333
 balance_136: +1 g_136 -1 c_136 +1 d_136 -1 w_136 = +566.747433333333
 state_136: -0.9 c_136 +1.11111111111111 d_136 -1 E_136 +1 E_137 = +0
 charge_mode_136: +1 c_136 -833.333333333333 z_136 <= +0
 discharge_mode_136: +1 d_136 +833.333333333333 z_136 <= +833.333333333333
 balance_137: +1 g_137 -1 c_137 +1 d_137 -1 w_137 = +566.540433333333
 state_137: -0.9 c_137 +1.11111111111111 d_137 -1 E_137 +1 E_138 = +0
 charge_mode_137: +1 c_137 -833.333333333333 z_137 <= +0
 discharge_mode_137: +1 d_137 +833.333333333333 z_137 <= +833.333333333333
 balance_138: +1 g_138 -1 c_138 +1 d_138 -1 w_138 = +567.83015
 state_138: -0.9 c_138 +1.11111111111111 d_138 -1 E_138 +1 E_139 = +0
 charge_mode_138: +1 c_138 -833.333333333333 z_138 <= +0
 discharge_mode_138: +1 d_138 +833.333333333333 z_138 <= +833.333333333333
 balance_139: +1 g_139 -1 c_139 +1 d_139 -1 w_139 = +569.358633333333
 state_139: -0.9 c_139 +1.11111111111111 d_139 -1 E_139 +1 E_140 = +0
 charge_mode_139: +1 c_139 -833.333333333333 z_139 <= +0
 discharge_mode_139: +1 d_139 +833.333333333333 z_139 <= +833.333333333333
 balance_140: +1 g_140 -1 c_140 +1 d_140 -1 w_140 = +570.330183333333
 state_140: -0.9 c_140 +1.11111111111111 d_140 -1 E_140 +1 E_141 = +0
 charge_mode_140: +1 c_140 -833.333333333333 z_140 <= +0
 discharge_mode_140: +1 d_140 +833.333333333333 z_140 <= +833.333333333333
 balance_141: +1 g_141 -1 c_141 +1 d_141 -1 w_141 = +571.615383333333
 state_141: -0.9 c_141 +1.11111111111111 d_141 -1 E_141 +1 E_142 = +0
 charge_mode_141: +1 c_141 -833.333333333333 z_141 <= +0
 discharge_mode_141: +1 d_141 +833.333333333333 z_141 <= +833.333333333333
 balance_142: +1 g_142 -1 c_142 +1 d_142 -1 w_142 = +573.176833333333
 state_142: -0.9 c_142 +1.11111111111111 d_142 -1 E_142 +1 E_143 = +0
 charge_mode_142: +1 c_142 -833.333333333333 z_142 <= +0
 discharge_mode_142: +1 d_142 +833.333333333333 z_142 <= +833.333333333333
 balance_143: +1 g_143 -1 c_143 +1 d_143 -1 w_143 = +574.120983333333
 state_143: -0.9 c_143 +1.11111111111111 d_143 -1 E_143 +1 E_144 = +0
 charge_mode_143: +1 c_143 -833.333333333333 z_143 <= +0
 discharge_mode_143: +1 d_143 +833.333333333333 z_143 <= +833.333333333333
 primary_cost_cap: +0.4248 g_0 +0.4245 g_1 +0.4269 g_2 +0.4272 g_3 +0.4271 g_4 +0.4285 g_5 +0.4311 g_6 +0.4302 g_7 +0.4279 g_8 +0.4312 g_9 +0.4333 g_10 +0.4311 g_11 +0.4293 g_12 +0.4324 g_13 +0.4367 g_14 +0.4348 g_15 +0.4335 g_16 +0.4357 g_17 +0.4374 g_18 +0.4371 g_19 +0.4356 g_20 +0.4353 g_21 +0.436 g_22 +0.4378 g_23 +0.4401 g_24 +0.4389 g_25 +0.4364 g_26 +0.4393 g_27 +0.4422 g_28 +0.4395 g_29 +0.4333 g_30 +0.4439 g_31 +0.4301 g_32 +0.3713 g_33 +0.5708 g_34 +0.9099 g_35 +0.9368 g_36 +0.8758 g_37 +0.8759 g_38 +0.8601 g_39 +0.8442 g_40 +0.8334 g_41
 +0.8092 g_42 +0.7972 g_43 +0.7644 g_44 +0.6899 g_45 +0.86 g_46 +1.1617 g_47 +1.1683 g_48 +1.0956 g_49 +1.0849 g_50 +1.061 g_51 +1.043 g_52 +1.036 g_53 +1.0147 g_54 +0.9922 g_55 +0.97 g_56 +0.9422 g_57 +0.9569 g_58 +0.9977 g_59 +0.9919 g_60 +0.9588 g_61 +0.9549 g_62 +0.9839 g_63 +0.799 g_64 +0.5025 g_65 +0.4662 g_66 +0.5007 g_67 +0.4827 g_68 +0.4785 g_69 +0.4662 g_70 +0.4432 g_71 +0.4411 g_72 +0.4551 g_73 +0.4463 g_74 +0.4113 g_75 +0.5682 g_76 +0.8279 g_77 +0.8636 g_78 +0.8416 g_79 +0.8618 g_80 +0.8623 g_81 +0.9026 g_82 +0.9754 g_83 +1.0002 g_84 +0.9978
 g_85 +1.0271 g_86 +1.0906 g_87 +0.9376 g_88 +0.6694 g_89 +0.66 g_90 +0.7217 g_91 +0.7308 g_92 +0.7534 g_93 +0.7823 g_94 +0.8055 g_95 +0.8271 g_96 +0.8519 g_97 +0.8791 g_98 +0.9024 g_99 +0.9163 g_100 +0.9264 g_101 +0.9462 g_102 +0.9742 g_103 +0.9862 g_104 +0.976 g_105 +1.0742 g_106 +1.2313 g_107 +1.2561 g_108 +1.2447 g_109 +1.2545 g_110 +1.2522 g_111 +1.2881 g_112 +1.3466 g_113 +1.3523 g_114 +1.3445 g_115 +1.3483 g_116 +1.349 g_117 +1.3473 g_118 +1.3482 g_119 +1.3513 g_120 +1.34 g_121 +1.3489 g_122 +1.3952 g_123 +1.2226 g_124 +0.9332 g_125 +0.9068 g_126
 +0.9371 g_127 +0.9371 g_128 +0.9871 g_129 +0.7764 g_130 +0.4209 g_131 +0.3859 g_132 +0.4368 g_133 +0.4198 g_134 +0.4186 g_135 +0.4241 g_136 +0.4237 g_137 +0.4248 g_138 +0.424 g_139 +0.422 g_140 +0.424 g_141 +0.4271 g_142 +0.4276 g_143 <= +35126.9485893896
bounds
 c_0 <= 833.333333333333
 c_1 <= 833.333333333333
 c_2 <= 833.333333333333
 c_3 <= 833.333333333333
 c_4 <= 833.333333333333
 c_5 <= 833.333333333333
 c_6 <= 833.333333333333
 c_7 <= 833.333333333333
 c_8 <= 833.333333333333
 c_9 <= 833.333333333333
 c_10 <= 833.333333333333
 c_11 <= 833.333333333333
 c_12 <= 833.333333333333
 c_13 <= 833.333333333333
 c_14 <= 833.333333333333
 c_15 <= 833.333333333333
 c_16 <= 833.333333333333
 c_17 <= 833.333333333333
 c_18 <= 833.333333333333
 c_19 <= 833.333333333333
 c_20 <= 833.333333333333
 c_21 <= 833.333333333333
 c_22 <= 833.333333333333
 c_23 <= 833.333333333333
 c_24 <= 833.333333333333
 c_25 <= 833.333333333333
 c_26 <= 833.333333333333
 c_27 <= 833.333333333333
 c_28 <= 833.333333333333
 c_29 <= 833.333333333333
 c_30 <= 833.333333333333
 c_31 <= 833.333333333333
 c_32 <= 833.333333333333
 c_33 <= 833.333333333333
 c_34 <= 833.333333333333
 c_35 <= 833.333333333333
 c_36 <= 833.333333333333
 c_37 <= 833.333333333333
 c_38 <= 833.333333333333
 c_39 <= 833.333333333333
 c_40 <= 833.333333333333
 c_41 <= 833.333333333333
 c_42 <= 833.333333333333
 c_43 <= 833.333333333333
 c_44 <= 833.333333333333
 c_45 <= 833.333333333333
 c_46 <= 833.333333333333
 c_47 <= 833.333333333333
 c_48 <= 833.333333333333
 c_49 <= 833.333333333333
 c_50 <= 833.333333333333
 c_51 <= 833.333333333333
 c_52 <= 833.333333333333
 c_53 <= 833.333333333333
 c_54 <= 833.333333333333
 c_55 <= 833.333333333333
 c_56 <= 833.333333333333
 c_57 <= 833.333333333333
 c_58 <= 833.333333333333
 c_59 <= 833.333333333333
 c_60 <= 833.333333333333
 c_61 <= 833.333333333333
 c_62 <= 833.333333333333
 c_63 <= 833.333333333333
 c_64 <= 833.333333333333
 c_65 <= 833.333333333333
 c_66 <= 833.333333333333
 c_67 <= 833.333333333333
 c_68 <= 833.333333333333
 c_69 <= 833.333333333333
 c_70 <= 833.333333333333
 c_71 <= 833.333333333333
 c_72 <= 833.333333333333
 c_73 <= 833.333333333333
 c_74 <= 833.333333333333
 c_75 <= 833.333333333333
 c_76 <= 833.333333333333
 c_77 <= 833.333333333333
 c_78 <= 833.333333333333
 c_79 <= 833.333333333333
 c_80 <= 833.333333333333
 c_81 <= 833.333333333333
 c_82 <= 833.333333333333
 c_83 <= 833.333333333333
 c_84 <= 833.333333333333
 c_85 <= 833.333333333333
 c_86 <= 833.333333333333
 c_87 <= 833.333333333333
 c_88 <= 833.333333333333
 c_89 <= 833.333333333333
 c_90 <= 833.333333333333
 c_91 <= 833.333333333333
 c_92 <= 833.333333333333
 c_93 <= 833.333333333333
 c_94 <= 833.333333333333
 c_95 <= 833.333333333333
 c_96 <= 833.333333333333
 c_97 <= 833.333333333333
 c_98 <= 833.333333333333
 c_99 <= 833.333333333333
 c_100 <= 833.333333333333
 c_101 <= 833.333333333333
 c_102 <= 833.333333333333
 c_103 <= 833.333333333333
 c_104 <= 833.333333333333
 c_105 <= 833.333333333333
 c_106 <= 833.333333333333
 c_107 <= 833.333333333333
 c_108 <= 833.333333333333
 c_109 <= 833.333333333333
 c_110 <= 833.333333333333
 c_111 <= 833.333333333333
 c_112 <= 833.333333333333
 c_113 <= 833.333333333333
 c_114 <= 833.333333333333
 c_115 <= 833.333333333333
 c_116 <= 833.333333333333
 c_117 <= 833.333333333333
 c_118 <= 833.333333333333
 c_119 <= 833.333333333333
 c_120 <= 833.333333333333
 c_121 <= 833.333333333333
 c_122 <= 833.333333333333
 c_123 <= 833.333333333333
 c_124 <= 833.333333333333
 c_125 <= 833.333333333333
 c_126 <= 833.333333333333
 c_127 <= 833.333333333333
 c_128 <= 833.333333333333
 c_129 <= 833.333333333333
 c_130 <= 833.333333333333
 c_131 <= 833.333333333333
 c_132 <= 833.333333333333
 c_133 <= 833.333333333333
 c_134 <= 833.333333333333
 c_135 <= 833.333333333333
 c_136 <= 833.333333333333
 c_137 <= 833.333333333333
 c_138 <= 833.333333333333
 c_139 <= 833.333333333333
 c_140 <= 833.333333333333
 c_141 <= 833.333333333333
 c_142 <= 833.333333333333
 c_143 <= 833.333333333333
 d_0 <= 833.333333333333
 d_1 <= 833.333333333333
 d_2 <= 833.333333333333
 d_3 <= 833.333333333333
 d_4 <= 833.333333333333
 d_5 <= 833.333333333333
 d_6 <= 833.333333333333
 d_7 <= 833.333333333333
 d_8 <= 833.333333333333
 d_9 <= 833.333333333333
 d_10 <= 833.333333333333
 d_11 <= 833.333333333333
 d_12 <= 833.333333333333
 d_13 <= 833.333333333333
 d_14 <= 833.333333333333
 d_15 <= 833.333333333333
 d_16 <= 833.333333333333
 d_17 <= 833.333333333333
 d_18 <= 833.333333333333
 d_19 <= 833.333333333333
 d_20 <= 833.333333333333
 d_21 <= 833.333333333333
 d_22 <= 833.333333333333
 d_23 <= 833.333333333333
 d_24 <= 833.333333333333
 d_25 <= 833.333333333333
 d_26 <= 833.333333333333
 d_27 <= 833.333333333333
 d_28 <= 833.333333333333
 d_29 <= 833.333333333333
 d_30 <= 833.333333333333
 d_31 <= 833.333333333333
 d_32 <= 833.333333333333
 d_33 <= 833.333333333333
 d_34 <= 833.333333333333
 d_35 <= 833.333333333333
 d_36 <= 833.333333333333
 d_37 <= 833.333333333333
 d_38 <= 833.333333333333
 d_39 <= 833.333333333333
 d_40 <= 833.333333333333
 d_41 <= 833.333333333333
 d_42 <= 833.333333333333
 d_43 <= 833.333333333333
 d_44 <= 833.333333333333
 d_45 <= 833.333333333333
 d_46 <= 833.333333333333
 d_47 <= 833.333333333333
 d_48 <= 833.333333333333
 d_49 <= 833.333333333333
 d_50 <= 833.333333333333
 d_51 <= 833.333333333333
 d_52 <= 833.333333333333
 d_53 <= 833.333333333333
 d_54 <= 833.333333333333
 d_55 <= 833.333333333333
 d_56 <= 833.333333333333
 d_57 <= 833.333333333333
 d_58 <= 833.333333333333
 d_59 <= 833.333333333333
 d_60 <= 833.333333333333
 d_61 <= 833.333333333333
 d_62 <= 833.333333333333
 d_63 <= 833.333333333333
 d_64 <= 833.333333333333
 d_65 <= 833.333333333333
 d_66 <= 833.333333333333
 d_67 <= 833.333333333333
 d_68 <= 833.333333333333
 d_69 <= 833.333333333333
 d_70 <= 833.333333333333
 d_71 <= 833.333333333333
 d_72 <= 833.333333333333
 d_73 <= 833.333333333333
 d_74 <= 833.333333333333
 d_75 <= 833.333333333333
 d_76 <= 833.333333333333
 d_77 <= 833.333333333333
 d_78 <= 833.333333333333
 d_79 <= 833.333333333333
 d_80 <= 833.333333333333
 d_81 <= 833.333333333333
 d_82 <= 833.333333333333
 d_83 <= 833.333333333333
 d_84 <= 833.333333333333
 d_85 <= 833.333333333333
 d_86 <= 833.333333333333
 d_87 <= 833.333333333333
 d_88 <= 833.333333333333
 d_89 <= 833.333333333333
 d_90 <= 833.333333333333
 d_91 <= 833.333333333333
 d_92 <= 833.333333333333
 d_93 <= 833.333333333333
 d_94 <= 833.333333333333
 d_95 <= 833.333333333333
 d_96 <= 833.333333333333
 d_97 <= 833.333333333333
 d_98 <= 833.333333333333
 d_99 <= 833.333333333333
 d_100 <= 833.333333333333
 d_101 <= 833.333333333333
 d_102 <= 833.333333333333
 d_103 <= 833.333333333333
 d_104 <= 833.333333333333
 d_105 <= 833.333333333333
 d_106 <= 833.333333333333
 d_107 <= 833.333333333333
 d_108 <= 833.333333333333
 d_109 <= 833.333333333333
 d_110 <= 833.333333333333
 d_111 <= 833.333333333333
 d_112 <= 833.333333333333
 d_113 <= 833.333333333333
 d_114 <= 833.333333333333
 d_115 <= 833.333333333333
 d_116 <= 833.333333333333
 d_117 <= 833.333333333333
 d_118 <= 833.333333333333
 d_119 <= 833.333333333333
 d_120 <= 833.333333333333
 d_121 <= 833.333333333333
 d_122 <= 833.333333333333
 d_123 <= 833.333333333333
 d_124 <= 833.333333333333
 d_125 <= 833.333333333333
 d_126 <= 833.333333333333
 d_127 <= 833.333333333333
 d_128 <= 833.333333333333
 d_129 <= 833.333333333333
 d_130 <= 833.333333333333
 d_131 <= 833.333333333333
 d_132 <= 833.333333333333
 d_133 <= 833.333333333333
 d_134 <= 833.333333333333
 d_135 <= 833.333333333333
 d_136 <= 833.333333333333
 d_137 <= 833.333333333333
 d_138 <= 833.333333333333
 d_139 <= 833.333333333333
 d_140 <= 833.333333333333
 d_141 <= 833.333333333333
 d_142 <= 833.333333333333
 d_143 <= 833.333333333333
 w_0 = 0
 w_1 = 0
 w_2 = 0
 w_3 = 0
 w_4 = 0
 w_5 = 0
 w_6 = 0
 w_7 = 0
 w_8 = 0
 w_9 = 0
 w_10 = 0
 w_11 = 0
 w_12 = 0
 w_13 = 0
 w_14 = 0
 w_15 = 0
 w_16 = 0
 w_17 = 0
 w_18 = 0
 w_19 = 0
 w_20 = 0
 w_21 = 0
 w_22 = 0
 w_23 = 0
 w_24 = 0
 w_25 = 0
 w_26 = 0
 w_27 <= 0.0999
 w_28 <= 0.0390833333333333
 w_29 <= 0.0480833333333333
 w_30 <= 3.11301666666667
 w_31 <= 9.0783
 w_32 <= 18.1619666666667
 w_33 <= 30.6933833333333
 w_34 <= 46.1763666666667
 w_35 <= 64.7582333333333
 w_36 <= 86.88005
 w_37 <= 112.12795
 w_38 <= 140.70435
 w_39 <= 173.279066666667
 w_40 <= 209.889583333333
 w_41 <= 251.438633333333
 w_42 <= 298.56845
 w_43 <= 347.581083333333
 w_44 <= 396.87685
 w_45 <= 447.195866666667
 w_46 <= 497.725866666667
 w_47 <= 548.200666666667
 w_48 <= 598.89355
 w_49 <= 648.455533333333
 w_50 <= 696.890283333333
 w_51 <= 745.294283333333
 w_52 <= 792.137866666667
 w_53 <= 836.984566666667
 w_54 <= 880.9021
 w_55 <= 923.862366666667
 w_56 <= 964.734883333333
 w_57 <= 1002.02173333333
 w_58 <= 1036.02546666667
 w_59 <= 1068.26568333333
 w_60 <= 1099.8968
 w_61 <= 1127.78673333333
 w_62 <= 1152.43205
 w_63 <= 1177.36755
 w_64 <= 1199.57191666667
 w_65 <= 1217.1857
 w_66 <= 1231.2808
 w_67 <= 1243.2045
 w_68 <= 1253.45318333333
 w_69 <= 1261.36731666667
 w_70 <= 1265.35898333333
 w_71 <= 1266.84055
 w_72 <= 1268.71933333333
 w_73 <= 1267.10873333333
 w_74 <= 1259.0312
 w_75 <= 1245.4564
 w_76 <= 1232.2362
 w_77 <= 1218.79965
 w_78 <= 1199.09016666667
 w_79 <= 1175.52285
 w_80 <= 1151.7344
 w_81 <= 1128.73458333333
 w_82 <= 1101.22666666667
 w_83 <= 1068.75141666667
 w_84 <= 1035.6693
 w_85 <= 1000.11853333333
 w_86 <= 961.1636
 w_87 <= 920.2511
 w_88 <= 878.130166666667
 w_89 <= 834.952533333333
 w_90 <= 790.574733333333
 w_91 <= 745.204
 w_92 <= 698.03375
 w_93 <= 648.232183333333
 w_94 <= 599.0991
 w_95 <= 550.647966666667
 w_96 <= 499.73745
 w_97 <= 447.902183333333
 w_98 <= 397.196316666667
 w_99 <= 348.187433333333
 w_100 <= 298.513816666667
 w_101 <= 250.28805
 w_102 <= 209.195383333333
 w_103 <= 172.72205
 w_104 <= 139.462916666667
 w_105 <= 110.871883333333
 w_106 <= 86.1126333333333
 w_107 <= 64.4455166666667
 w_108 <= 45.96555
 w_109 <= 30.4921
 w_110 <= 18.0569
 w_111 <= 9.05201666666667
 w_112 <= 3.10948333333333
 w_113 <= 0.0458833333333333
 w_114 <= 0.0382666666666667
 w_115 <= 0.100116666666667
 w_116 = 0
 w_117 = 0
 w_118 = 0
 w_119 = 0
 w_120 = 0
 w_121 = 0
 w_122 = 0
 w_123 = 0
 w_124 = 0
 w_125 = 0
 w_126 = 0
 w_127 = 0
 w_128 = 0
 w_129 = 0
 w_130 = 0
 w_131 = 0
 w_132 = 0
 w_133 = 0
 w_134 = 0
 w_135 = 0
 w_136 = 0
 w_137 = 0
 w_138 = 0
 w_139 = 0
 w_140 = 0
 w_141 = 0
 w_142 = 0
 w_143 = 0
 1200 <= E_0 <= 10800
 1200 <= E_1 <= 10800
 1200 <= E_2 <= 10800
 1200 <= E_3 <= 10800
 1200 <= E_4 <= 10800
 1200 <= E_5 <= 10800
 1200 <= E_6 <= 10800
 1200 <= E_7 <= 10800
 1200 <= E_8 <= 10800
 1200 <= E_9 <= 10800
 1200 <= E_10 <= 10800
 1200 <= E_11 <= 10800
 1200 <= E_12 <= 10800
 1200 <= E_13 <= 10800
 1200 <= E_14 <= 10800
 1200 <= E_15 <= 10800
 1200 <= E_16 <= 10800
 1200 <= E_17 <= 10800
 1200 <= E_18 <= 10800
 1200 <= E_19 <= 10800
 1200 <= E_20 <= 10800
 1200 <= E_21 <= 10800
 1200 <= E_22 <= 10800
 1200 <= E_23 <= 10800
 1200 <= E_24 <= 10800
 1200 <= E_25 <= 10800
 1200 <= E_26 <= 10800
 1200 <= E_27 <= 10800
 1200 <= E_28 <= 10800
 1200 <= E_29 <= 10800
 1200 <= E_30 <= 10800
 1200 <= E_31 <= 10800
 1200 <= E_32 <= 10800
 1200 <= E_33 <= 10800
 1200 <= E_34 <= 10800
 1200 <= E_35 <= 10800
 1200 <= E_36 <= 10800
 1200 <= E_37 <= 10800
 1200 <= E_38 <= 10800
 1200 <= E_39 <= 10800
 1200 <= E_40 <= 10800
 1200 <= E_41 <= 10800
 1200 <= E_42 <= 10800
 1200 <= E_43 <= 10800
 1200 <= E_44 <= 10800
 1200 <= E_45 <= 10800
 1200 <= E_46 <= 10800
 1200 <= E_47 <= 10800
 1200 <= E_48 <= 10800
 1200 <= E_49 <= 10800
 1200 <= E_50 <= 10800
 1200 <= E_51 <= 10800
 1200 <= E_52 <= 10800
 1200 <= E_53 <= 10800
 1200 <= E_54 <= 10800
 1200 <= E_55 <= 10800
 1200 <= E_56 <= 10800
 1200 <= E_57 <= 10800
 1200 <= E_58 <= 10800
 1200 <= E_59 <= 10800
 1200 <= E_60 <= 10800
 1200 <= E_61 <= 10800
 1200 <= E_62 <= 10800
 1200 <= E_63 <= 10800
 1200 <= E_64 <= 10800
 1200 <= E_65 <= 10800
 1200 <= E_66 <= 10800
 1200 <= E_67 <= 10800
 1200 <= E_68 <= 10800
 1200 <= E_69 <= 10800
 1200 <= E_70 <= 10800
 1200 <= E_71 <= 10800
 1200 <= E_72 <= 10800
 1200 <= E_73 <= 10800
 1200 <= E_74 <= 10800
 1200 <= E_75 <= 10800
 1200 <= E_76 <= 10800
 1200 <= E_77 <= 10800
 1200 <= E_78 <= 10800
 1200 <= E_79 <= 10800
 1200 <= E_80 <= 10800
 1200 <= E_81 <= 10800
 1200 <= E_82 <= 10800
 1200 <= E_83 <= 10800
 1200 <= E_84 <= 10800
 1200 <= E_85 <= 10800
 1200 <= E_86 <= 10800
 1200 <= E_87 <= 10800
 1200 <= E_88 <= 10800
 1200 <= E_89 <= 10800
 1200 <= E_90 <= 10800
 1200 <= E_91 <= 10800
 1200 <= E_92 <= 10800
 1200 <= E_93 <= 10800
 1200 <= E_94 <= 10800
 1200 <= E_95 <= 10800
 1200 <= E_96 <= 10800
 1200 <= E_97 <= 10800
 1200 <= E_98 <= 10800
 1200 <= E_99 <= 10800
 1200 <= E_100 <= 10800
 1200 <= E_101 <= 10800
 1200 <= E_102 <= 10800
 1200 <= E_103 <= 10800
 1200 <= E_104 <= 10800
 1200 <= E_105 <= 10800
 1200 <= E_106 <= 10800
 1200 <= E_107 <= 10800
 1200 <= E_108 <= 10800
 1200 <= E_109 <= 10800
 1200 <= E_110 <= 10800
 1200 <= E_111 <= 10800
 1200 <= E_112 <= 10800
 1200 <= E_113 <= 10800
 1200 <= E_114 <= 10800
 1200 <= E_115 <= 10800
 1200 <= E_116 <= 10800
 1200 <= E_117 <= 10800
 1200 <= E_118 <= 10800
 1200 <= E_119 <= 10800
 1200 <= E_120 <= 10800
 1200 <= E_121 <= 10800
 1200 <= E_122 <= 10800
 1200 <= E_123 <= 10800
 1200 <= E_124 <= 10800
 1200 <= E_125 <= 10800
 1200 <= E_126 <= 10800
 1200 <= E_127 <= 10800
 1200 <= E_128 <= 10800
 1200 <= E_129 <= 10800
 1200 <= E_130 <= 10800
 1200 <= E_131 <= 10800
 1200 <= E_132 <= 10800
 1200 <= E_133 <= 10800
 1200 <= E_134 <= 10800
 1200 <= E_135 <= 10800
 1200 <= E_136 <= 10800
 1200 <= E_137 <= 10800
 1200 <= E_138 <= 10800
 1200 <= E_139 <= 10800
 1200 <= E_140 <= 10800
 1200 <= E_141 <= 10800
 1200 <= E_142 <= 10800
 1200 <= E_143 <= 10800
 1200 <= E_144 <= 10800
 z_0 <= 1
 z_1 <= 1
 z_2 <= 1
 z_3 <= 1
 z_4 <= 1
 z_5 <= 1
 z_6 <= 1
 z_7 <= 1
 z_8 <= 1
 z_9 <= 1
 z_10 <= 1
 z_11 <= 1
 z_12 <= 1
 z_13 <= 1
 z_14 <= 1
 z_15 <= 1
 z_16 <= 1
 z_17 <= 1
 z_18 <= 1
 z_19 <= 1
 z_20 <= 1
 z_21 <= 1
 z_22 <= 1
 z_23 <= 1
 z_24 <= 1
 z_25 <= 1
 z_26 <= 1
 z_27 <= 1
 z_28 <= 1
 z_29 <= 1
 z_30 <= 1
 z_31 <= 1
 z_32 <= 1
 z_33 <= 1
 z_34 <= 1
 z_35 <= 1
 z_36 <= 1
 z_37 <= 1
 z_38 <= 1
 z_39 <= 1
 z_40 <= 1
 z_41 <= 1
 z_42 <= 1
 z_43 <= 1
 z_44 <= 1
 z_45 <= 1
 z_46 <= 1
 z_47 <= 1
 z_48 <= 1
 z_49 <= 1
 z_50 <= 1
 z_51 <= 1
 z_52 <= 1
 z_53 <= 1
 z_54 <= 1
 z_55 <= 1
 z_56 <= 1
 z_57 <= 1
 z_58 <= 1
 z_59 <= 1
 z_60 <= 1
 z_61 <= 1
 z_62 <= 1
 z_63 <= 1
 z_64 <= 1
 z_65 <= 1
 z_66 <= 1
 z_67 <= 1
 z_68 <= 1
 z_69 <= 1
 z_70 <= 1
 z_71 <= 1
 z_72 <= 1
 z_73 <= 1
 z_74 <= 1
 z_75 <= 1
 z_76 <= 1
 z_77 <= 1
 z_78 <= 1
 z_79 <= 1
 z_80 <= 1
 z_81 <= 1
 z_82 <= 1
 z_83 <= 1
 z_84 <= 1
 z_85 <= 1
 z_86 <= 1
 z_87 <= 1
 z_88 <= 1
 z_89 <= 1
 z_90 <= 1
 z_91 <= 1
 z_92 <= 1
 z_93 <= 1
 z_94 <= 1
 z_95 <= 1
 z_96 <= 1
 z_97 <= 1
 z_98 <= 1
 z_99 <= 1
 z_100 <= 1
 z_101 <= 1
 z_102 <= 1
 z_103 <= 1
 z_104 <= 1
 z_105 <= 1
 z_106 <= 1
 z_107 <= 1
 z_108 <= 1
 z_109 <= 1
 z_110 <= 1
 z_111 <= 1
 z_112 <= 1
 z_113 <= 1
 z_114 <= 1
 z_115 <= 1
 z_116 <= 1
 z_117 <= 1
 z_118 <= 1
 z_119 <= 1
 z_120 <= 1
 z_121 <= 1
 z_122 <= 1
 z_123 <= 1
 z_124 <= 1
 z_125 <= 1
 z_126 <= 1
 z_127 <= 1
 z_128 <= 1
 z_129 <= 1
 z_130 <= 1
 z_131 <= 1
 z_132 <= 1
 z_133 <= 1
 z_134 <= 1
 z_135 <= 1
 z_136 <= 1
 z_137 <= 1
 z_138 <= 1
 z_139 <= 1
 z_140 <= 1
 z_141 <= 1
 z_142 <= 1
 z_143 <= 1
bin
 z_0
 z_1
 z_2
 z_3
 z_4
 z_5
 z_6
 z_7
 z_8
 z_9
 z_10
 z_11
 z_12
 z_13
 z_14
 z_15
 z_16
 z_17
 z_18
 z_19
 z_20
 z_21
 z_22
 z_23
 z_24
 z_25
 z_26
 z_27
 z_28
 z_29
 z_30
 z_31
 z_32
 z_33
 z_34
 z_35
 z_36
 z_37
 z_38
 z_39
 z_40
 z_41
 z_42
 z_43
 z_44
 z_45
 z_46
 z_47
 z_48
 z_49
 z_50
 z_51
 z_52
 z_53
 z_54
 z_55
 z_56
 z_57
 z_58
 z_59
 z_60
 z_61
 z_62
 z_63
 z_64
 z_65
 z_66
 z_67
 z_68
 z_69
 z_70
 z_71
 z_72
 z_73
 z_74
 z_75
 z_76
 z_77
 z_78
 z_79
 z_80
 z_81
 z_82
 z_83
 z_84
 z_85
 z_86
 z_87
 z_88
 z_89
 z_90
 z_91
 z_92
 z_93
 z_94
 z_95
 z_96
 z_97
 z_98
 z_99
 z_100
 z_101
 z_102
 z_103
 z_104
 z_105
 z_106
 z_107
 z_108
 z_109
 z_110
 z_111
 z_112
 z_113
 z_114
 z_115
 z_116
 z_117
 z_118
 z_119
 z_120
 z_121
 z_122
 z_123
 z_124
 z_125
 z_126
 z_127
 z_128
 z_129
 z_130
 z_131
 z_132
 z_133
 z_134
 z_135
 z_136
 z_137
 z_138
 z_139
 z_140
 z_141
 z_142
 z_143
gen
semi
end
